c pcminimize - minimizing a CNF with respect to propagation completeness by iterative removing of absorbed clauses.
c Petr Kucera, 2016-2021
c Version 2.7, revision 59, git hash 4910a71, date 2024-07-16 20:17:42 +0200
p cnf 532 1132
172 -251 0
207 -251 0
-212 -251 0
251 -252 0
126 -252 0
253 -254 0
172 -254 0
-207 -255 0
-172 -255 0
254 255 -256 0
256 -258 0
257 -258 0
258 -259 0
-126 -259 0
252 259 -260 0
-27 -261 0
32 -261 0
262 -263 0
-32 -263 0
261 263 -264 0
264 -266 0
265 -266 0
266 -267 0
247 -267 0
-32 -268 0
268 -269 0
262 -269 0
269 -270 0
-247 -270 0
267 270 -271 0
112 -272 0
273 -274 0
-112 -274 0
272 274 -275 0
-48 -276 0
-183 -276 0
276 -277 0
43 -277 0
278 -279 0
183 -279 0
-48 -280 0
-183 -280 0
279 280 -281 0
281 -283 0
282 -283 0
283 -284 0
-43 -284 0
277 284 -285 0
-3 -286 0
-6 -286 0
-14 -286 0
-19 -286 0
21 -286 0
26 -286 0
-30 -286 0
-33 -286 0
-38 -286 0
-41 -286 0
60 -286 0
-64 -286 0
65 -286 0
78 -286 0
-81 -286 0
93 -286 0
111 -286 0
118 -286 0
-120 -286 0
-122 -286 0
130 -286 0
132 -286 0
136 -286 0
-137 -286 0
138 -286 0
-144 -286 0
-147 -286 0
152 -286 0
-156 -286 0
158 -286 0
161 -286 0
165 -286 0
175 -286 0
-182 -286 0
-188 -286 0
-194 -286 0
200 -286 0
-216 -286 0
-217 -286 0
-219 -286 0
-222 -286 0
223 -286 0
-225 -286 0
233 -286 0
-243 -286 0
-248 -286 0
287 -295 0
288 -295 0
289 -295 0
290 -295 0
291 -295 0
292 -295 0
293 -295 0
294 -295 0
260 -296 0
271 -296 0
275 -296 0
285 -296 0
286 -296 0
295 -296 0
296 -297 0
297 -298 0
166 -298 0
298 -299 0
299 -300 0
-3 -301 0
-14 -301 0
-26 -301 0
-38 -301 0
-126 -301 0
153 -301 0
301 -303 0
302 -303 0
303 -304 0
212 -304 0
126 -306 0
305 -306 0
306 -307 0
290 -307 0
307 -308 0
3 -308 0
305 -309 0
126 -309 0
-26 -310 0
-126 -310 0
309 310 -311 0
311 -312 0
153 -312 0
312 -313 0
-3 -313 0
308 313 -314 0
-158 -317 0
315 -317 0
316 -317 0
317 -318 0
38 -318 0
-14 -319 0
319 -320 0
302 -320 0
320 -321 0
-38 -321 0
318 321 -322 0
314 -323 0
322 -323 0
323 -324 0
-212 -324 0
304 324 -325 0
44 -326 0
327 -328 0
-44 -328 0
326 328 -329 0
330 -331 0
168 -331 0
120 -332 0
-168 -332 0
331 332 -333 0
207 -336 0
334 -336 0
335 -336 0
336 -337 0
182 -337 0
132 -338 0
338 -339 0
253 -339 0
339 -340 0
-182 -340 0
337 340 -341 0
-2 -342 0
-6 -342 0
-7 -342 0
8 -342 0
-9 -342 0
-11 -342 0
-21 -342 0
-32 -342 0
45 -342 0
48 -342 0
55 -342 0
57 -342 0
84 -342 0
88 -342 0
95 -342 0
96 -342 0
104 -342 0
106 -342 0
-107 -342 0
-113 -342 0
114 -342 0
116 -342 0
118 -342 0
119 -342 0
-122 -342 0
125 -342 0
129 -342 0
137 -342 0
139 -342 0
140 -342 0
-147 -342 0
154 -342 0
-157 -342 0
-162 -342 0
165 -342 0
183 -342 0
-188 -342 0
197 -342 0
-200 -342 0
201 -342 0
208 -342 0
-218 -342 0
220 -342 0
222 -342 0
-223 -342 0
343 -347 0
344 -347 0
294 -347 0
289 -347 0
345 -347 0
346 -347 0
325 -348 0
329 -348 0
333 -348 0
341 -348 0
342 -348 0
347 -348 0
348 -349 0
-128 -349 0
-5 -350 0
-27 -350 0
-58 -350 0
-91 -350 0
-93 -350 0
-102 -350 0
-117 -350 0
130 -350 0
-167 -350 0
175 -350 0
-187 -350 0
-199 -350 0
221 -350 0
-227 -350 0
349 -352 0
350 -352 0
351 -352 0
352 -353 0
51 -354 0
192 -354 0
219 -354 0
224 -354 0
228 -354 0
353 -355 0
354 -355 0
355 -356 0
123 -357 0
356 -358 0
357 -358 0
358 -359 0
359 -360 0
-24 -360 0
361 -362 0
94 -368 0
369 -370 0
147 -370 0
222 -371 0
-147 -371 0
370 371 -372 0
118 -374 0
373 -374 0
374 -375 0
165 -375 0
376 -377 0
122 -377 0
118 -378 0
-122 -378 0
377 378 -379 0
379 -380 0
-165 -380 0
375 380 -381 0
381 -382 0
246 -382 0
-118 -383 0
122 -383 0
-165 -383 0
383 -384 0
-246 -384 0
382 384 -385 0
-6 -386 0
-188 -386 0
387 -389 0
388 -389 0
385 -390 0
386 -390 0
389 -390 0
390 -391 0
219 -391 0
-137 -392 0
-200 -392 0
392 -393 0
6 -393 0
387 -394 0
388 -394 0
394 -395 0
-6 -395 0
393 395 -396 0
396 -397 0
188 -397 0
387 -398 0
388 -398 0
-6 -399 0
398 -399 0
399 -400 0
-188 -400 0
397 400 -401 0
381 -402 0
401 -402 0
246 -402 0
402 -403 0
-219 -403 0
391 403 -404 0
404 -405 0
351 -405 0
405 -406 0
130 -406 0
-172 -407 0
-219 -407 0
246 -407 0
381 -409 0
396 -409 0
407 -409 0
408 -409 0
409 -410 0
-130 -410 0
406 410 -411 0
-126 -412 0
212 -412 0
413 -414 0
-212 -414 0
412 414 -415 0
372 -416 0
411 -416 0
415 -416 0
207 -416 0
416 -417 0
175 -417 0
207 -418 0
369 -418 0
418 -419 0
147 -419 0
222 -420 0
253 -420 0
420 -421 0
-147 -421 0
419 421 -422 0
422 -423 0
-126 -423 0
423 -424 0
212 -424 0
207 -425 0
413 -425 0
425 -426 0
369 -426 0
426 -427 0
147 -427 0
207 -428 0
126 -428 0
253 -429 0
-126 -429 0
428 429 -430 0
430 -431 0
222 -431 0
431 -432 0
-147 -432 0
427 432 -433 0
433 -434 0
-212 -434 0
424 434 -435 0
385 -436 0
219 -436 0
381 -437 0
246 -437 0
437 -438 0
-219 -438 0
436 438 -439 0
387 -440 0
388 -440 0
439 -441 0
-6 -441 0
440 -441 0
441 -442 0
351 -442 0
442 -443 0
130 -443 0
381 -444 0
396 -444 0
407 -444 0
444 -445 0
-130 -445 0
443 445 -446 0
435 -447 0
446 -447 0
-188 -447 0
447 -448 0
-175 -448 0
417 448 -449 0
41 -450 0
-93 -450 0
192 -450 0
449 -451 0
450 -451 0
451 -452 0
82 -452 0
385 -453 0
386 -453 0
387 -453 0
453 -454 0
219 -454 0
-200 -455 0
6 -455 0
387 -456 0
-6 -456 0
455 456 -457 0
457 -458 0
188 -458 0
-6 -459 0
387 -459 0
459 -460 0
-188 -460 0
458 460 -461 0
381 -462 0
461 -462 0
246 -462 0
462 -463 0
-219 -463 0
454 463 -464 0
-93 -465 0
351 -465 0
465 -466 0
41 -466 0
172 -467 0
93 -467 0
351 -468 0
-93 -468 0
467 468 -469 0
469 -470 0
-41 -470 0
466 470 -471 0
464 -472 0
471 -472 0
472 -473 0
130 -473 0
-93 -474 0
-172 -474 0
474 -475 0
41 -475 0
172 -476 0
93 -476 0
-172 -477 0
-93 -477 0
476 477 -478 0
478 -479 0
-41 -479 0
475 479 -480 0
-219 -481 0
246 -481 0
381 -482 0
480 -482 0
457 -482 0
481 -482 0
408 -482 0
482 -483 0
-130 -483 0
473 483 -484 0
372 -485 0
484 -485 0
415 -485 0
207 -485 0
485 -486 0
175 -486 0
439 -487 0
-6 -487 0
387 -487 0
487 -488 0
351 -488 0
488 -489 0
130 -489 0
381 -490 0
457 -490 0
407 -490 0
490 -491 0
-130 -491 0
489 491 -492 0
-93 -493 0
-188 -493 0
435 -494 0
492 -494 0
493 -494 0
343 -494 0
494 -495 0
-175 -495 0
486 495 -496 0
496 -497 0
-137 -497 0
497 -498 0
287 -498 0
498 -499 0
-82 -499 0
452 499 -500 0
134 -501 0
502 -503 0
-134 -503 0
501 503 -504 0
3 -505 0
14 -505 0
22 -505 0
26 -505 0
27 -505 0
32 -505 0
36 -505 0
38 -505 0
-48 -505 0
-70 -505 0
83 -505 0
-89 -505 0
101 -505 0
115 -505 0
-119 -505 0
-120 -505 0
-121 -505 0
127 -505 0
-132 -505 0
148 -505 0
150 -505 0
170 -505 0
-178 -505 0
-180 -505 0
182 -505 0
-183 -505 0
193 -505 0
-197 -505 0
203 -505 0
-210 -505 0
-215 -505 0
231 -505 0
-236 -505 0
289 -510 0
506 -510 0
302 -510 0
507 -510 0
508 -510 0
290 -510 0
509 -510 0
500 -511 0
504 -511 0
505 -511 0
510 -511 0
511 -512 0
-109 -513 0
512 -514 0
513 -514 0
514 -515 0
42 -516 0
515 -517 0
516 -517 0
517 -518 0
-149 -518 0
518 -520 0
230 -522 0
522 -523 0
151 -525 0
525 -526 0
-94 -531 0
532 0
4 0
10 0
-12 0
-13 0
20 0
-23 0
-25 0
-28 0
-29 0
-34 0
-35 0
-37 0
39 0
-40 0
46 0
-47 0
50 0
-52 0
54 0
56 0
-59 0
-61 0
-63 0
-66 0
-67 0
68 0
-69 0
-73 0
74 0
-75 0
-76 0
-77 0
79 0
-80 0
86 0
-87 0
-90 0
92 0
-97 0
-98 0
-99 0
-100 0
-103 0
-105 0
108 0
110 0
124 0
131 0
-133 0
-135 0
141 0
-142 0
143 0
-145 0
-146 0
155 0
159 0
-160 0
-163 0
164 0
-169 0
-173 0
174 0
-176 0
177 0
179 0
181 0
184 0
185 0
-186 0
-189 0
-190 0
-191 0
-195 0
198 0
-202 0
-204 0
-205 0
-206 0
209 0
213 0
214 0
-226 0
-229 0
-232 0
-234 0
-235 0
-237 0
-238 0
-239 0
-241 0
-242 0
-244 0
245 0
-249 0
250 0
17 527 0
-525 526 0
-151 525 0
-522 523 0
149 518 0
-517 518 0
-516 517 0
-515 517 0
-513 514 0
-511 512 0
-510 511 0
-508 510 0
-507 510 0
-71 507 0
-505 511 0
236 505 0
-231 505 0
215 505 0
210 505 0
-203 505 0
-193 505 0
180 505 0
-150 505 0
-148 505 0
-127 505 0
121 505 0
-115 505 0
-101 505 0
89 505 0
134 503 0
-502 503 0
-49 502 0
-501 504 0
-500 511 0
-497 498 0
-496 497 0
-495 496 0
-494 495 0
-493 494 0
-488 489 0
-487 488 0
-485 486 0
-484 485 0
-483 484 0
-481 482 0
-479 480 0
-478 479 0
-477 478 0
-476 478 0
-475 480 0
-473 484 0
-472 473 0
-471 472 0
-469 470 0
-468 469 0
-466 471 0
-464 472 0
-463 464 0
-462 463 0
-460 461 0
-459 460 0
-456 457 0
-455 457 0
-453 454 0
-452 500 0
178 505 0
-451 452 0
-450 451 0
-449 451 0
175 448 495 0
-447 448 0
-446 447 0
-445 446 0
-444 445 0
-443 446 0
-230 522 0
-442 443 0
-439 441 487 0
-438 439 0
-437 438 0
-528 529 0
-432 433 0
-527 528 0
-426 427 0
-521 523 0
-421 422 0
222 286 369 0
122 286 342 373 378 0
19 286 0
118 376 383 0
-448 449 0
-465 466 0
30 286 0
-158 286 302 0
-152 286 0
147 286 342 371 421 432 0
-503 504 0
-344 347 0
-474 475 0
25 362 519 0
-292 295 0
-3 308 505 0
-130 286 350 406 443 473 489 0
-470 471 0
-222 342 369 371 420 431 0
-352 353 0
-411 416 0
-129 342 0
-353 355 0
-208 342 0
-499 500 0
-207 251 253 336 416 418 425 428 485 0
216 286 0
-111 286 0
199 350 0
194 286 0
-297 298 0
-188 397 408 458 0
-93 286 467 476 0
183 276 280 505 0
-183 279 342 0
-341 348 0
-400 401 0
-415 416 485 0
-42 516 0
-512 514 0
-175 286 350 417 486 0
-394 395 0
137 286 388 392 497 0
-458 461 0
182 286 340 0
-136 286 0
-271 296 0
-420 421 0
-280 281 0
112 274 0
1 273 0
-259 260 0
-83 505 0
247 270 0
-509 510 0
-256 258 0
-366 367 0
-48 278 342 0
-269 270 0
-18 282 0
-27 262 505 0
-367 368 0
6 286 342 386 395 399 441 456 459 487 0
-272 275 0
-337 341 0
-220 342 0
-409 410 0
-266 267 0
-275 296 0
156 286 0
-251 252 0
167 350 0
188 286 342 386 400 408 447 460 493 0
-480 482 0
-126 252 306 309 413 428 0
-340 341 0
218 342 0
-253 254 339 420 429 0
-267 271 0
-291 295 0
-434 435 0
-361 362 0
-109 294 0
-313 314 0
64 286 0
-278 279 0
-457 458 482 490 0
-246 286 342 382 402 407 437 462 481 0
-273 274 0
207 253 255 0
-392 393 0
-254 256 0
-390 391 0
-165 286 342 375 0
200 342 387 392 455 0
-385 390 436 453 0
212 251 257 324 414 434 0
-120 330 332 0
-403 404 0
-260 296 0
2 342 0
-261 264 0
-114 342 0
-482 483 0
72 334 0
-32 261 505 0
-288 295 0
-172 251 254 351 467 476 0
144 286 0
-274 275 0
-123 357 0
-492 494 0
-257 258 0
-258 259 0
-171 289 0
126 259 301 310 412 413 423 429 0
-219 354 391 436 454 0
-440 441 0
-362 363 0
-293 295 0
-408 409 482 0
3 286 301 313 0
27 261 262 350 0
-332 333 0
-161 286 0
-371 372 0
-200 286 387 0
107 342 0
-270 271 0
246 384 0
-422 423 0
-283 284 0
-526 527 0
-430 431 0
-153 290 301 312 0
-262 263 269 0
-53 265 0
-264 266 0
-84 342 0
43 284 0
-523 524 0
-425 426 0
-284 285 0
5 350 0
-395 396 0
240 506 0
217 286 0
-125 342 0
-212 257 304 412 424 0
-328 329 0
-314 323 0
32 263 268 342 0
-321 322 0
-276 277 0
-170 505 0
-45 342 0
-192 287 354 450 0
-389 390 0
-78 286 0
-402 403 0
-308 314 0
-255 256 0
-490 491 0
-320 321 0
-116 342 0
-423 424 0
219 286 403 407 438 463 481 0
-277 285 0
-518 520 0
-418 419 0
-279 281 0
-282 283 0
172 255 351 407 474 477 0
7 342 0
70 505 0
-316 317 0
-22 505 0
-530 531 0
-435 447 494 0
157 342 0
-26 286 305 505 0
-60 286 0
38 286 301 321 0
-330 331 0
-489 492 0
162 342 0
-166 298 0
-312 313 0
-467 469 0
-252 260 0
33 286 0
-364 365 0
-349 352 0
-263 264 0
-36 505 0
-433 434 0
-441 442 0
-310 311 0
-233 286 0
-393 396 0
171 289 0
-345 347 0
243 286 0
248 286 0
-519 520 0
-342 348 0
-286 296 0
192 287 0
-369 370 418 426 0
-287 295 498 0
153 290 0
-295 296 0
-486 496 0
-290 295 307 510 0
-379 380 0
196 292 0
-104 342 0
-305 306 309 0
211 315 0
109 294 513 0
-294 295 347 0
-520 521 0
-281 283 0
-419 422 0
-303 304 0
-335 336 0
-298 299 0
-299 300 0
26 301 305 310 0
-301 303 0
-334 336 0
158 302 317 0
117 350 0
-302 303 320 510 0
-82 452 0
41 286 343 470 479 0
-338 339 0
-304 325 0
-343 347 494 0
-306 307 0
-307 308 0
-309 311 0
-311 312 0
-315 317 0
-317 318 0
81 286 0
-41 343 450 466 475 0
-268 269 0
-38 318 505 0
-365 366 0
-436 439 0
-363 364 0
-318 322 0
-319 320 0
-322 323 0
-323 324 0
-324 325 0
-325 348 0
58 350 0
-377 379 0
15 327 0
-498 499 0
-327 328 0
-346 347 0
44 328 0
-139 342 0
-329 348 0
-331 333 0
168 332 0
-333 348 0
-122 373 377 383 0
132 335 505 0
-16 288 0
-336 337 0
-406 411 0
-182 337 505 0
-339 340 0
-138 286 0
-8 342 0
9 342 0
113 342 0
11 342 0
93 350 450 465 468 474 477 493 0
-55 342 0
-57 342 0
-396 397 409 444 0
-88 342 0
-95 342 0
187 350 0
-348 349 0
-416 417 0
-106 342 0
-137 342 388 0
-265 266 0
-140 342 0
-154 342 0
-201 342 0
-378 379 0
-506 510 0
-404 405 0
-491 492 0
31 344 0
-461 462 0
-62 346 0
-347 348 0
-399 400 0
128 349 0
-221 350 0
-524 526 0
-428 430 0
-296 297 0
91 350 0
-454 464 0
102 350 0
-514 515 0
-413 414 425 0
227 350 0
-350 352 0
-351 352 405 442 465 468 488 0
-51 354 0
-285 296 0
-355 356 0
-228 354 0
-354 355 0
-370 372 0
225 286 0
-357 358 0
-431 432 0
-358 359 0
-427 433 0
-14 316 505 0
-224 354 0
-359 360 0
-65 286 0
24 360 0
-529 530 0
-424 435 0
-96 342 0
-17 365 0
-429 430 0
-356 358 0
-147 370 419 427 0
-372 416 485 0
-373 374 0
-374 375 0
-375 381 0
-376 377 0
165 380 383 0
-380 381 0
-381 382 402 409 437 444 462 482 490 0
-382 385 0
-383 384 0
-384 385 0
-386 390 453 0
-387 389 394 398 440 453 456 459 487 0
-388 389 394 398 440 0
-326 329 0
-391 404 0
-6 393 455 0
85 345 0
-414 415 0
-397 401 0
-398 399 0
-401 402 0
-405 406 0
-504 511 0
-407 409 444 490 0
130 410 445 483 491 0
-410 411 0
-412 415 0
-417 449 0
